; benchmark generated from python API
(set-info :status unknown)
(declare-fun S_3 () Real)
(declare-fun L_3 () Real)
(declare-fun A_3 () Real)
(declare-fun S_4 () Real)
(declare-fun L_4 () Real)
(declare-fun A_4 () Real)
(declare-fun L_0 () Real)
(declare-fun S_0 () Real)
(declare-fun A_0 () Real)
(declare-fun L_1 () Real)
(declare-fun A_1 () Real)
(declare-fun L_2 () Real)
(declare-fun A_2 () Real)
(declare-fun S_2 () Real)
(declare-fun S_1 () Real)
(assert
 (let (($x34 (>= L_0 0.0)))
 (let ((?x1347 (* 2.0 L_4)))
 (let ((?x489 (* (- 1.0) L_1)))
 (let ((?x973 (* (- 1.0) S_0)))
 (let ((?x1283 (* (- 2.0) L_3)))
 (let ((?x1297 (* 2.0 A_3)))
 (let ((?x1342 (* (- 2.0) A_4)))
 (let (($x111926 (<= (+ ?x1342 ?x1297 A_1 ?x1283 ?x973 ?x489 ?x1347) (- 5.0))))
 (let ((?x2543 (* 4.0 L_4)))
 (let ((?x1524 (* (- 4.0) L_2)))
 (let ((?x1312 (* (- 2.0) S_0)))
 (let ((?x1491 (* 2.0 S_3)))
 (let ((?x1400 (* 4.0 A_2)))
 (let ((?x2541 (* (- 4.0) A_4)))
 (let (($x9674 (<= (+ ?x2541 ?x1400 ?x1491 ?x1312 ?x1524 ?x2543) 0.0)))
 (let (($x81 (= L_4 L_3)))
 (let (($x119562 (<= (+ (* (- 1.0) A_3) (* (/ 3.0 4.0) S_4) (* (/ 1.0 4.0) S_0) L_3) (- 5.0))))
 (let (($x118186 (<= (+ (* (- 3.0) A_3) A_1 ?x489 (* 2.0 S_4) (* 3.0 L_3)) (- 15.0))))
 (let ((?x8921 (* (/ 1.0 2.0) S_4)))
 (let ((?x7435 (* (- (/ 1.0 2.0)) L_2)))
 (let ((?x7415 (* (/ 1.0 2.0) A_2)))
 (let ((?x386 (* (- 1.0) A_3)))
 (let (($x115192 (<= (+ ?x386 ?x7415 ?x7435 ?x8921 L_3) (- 5.0))))
 (let (($x71 (= L_3 L_2)))
 (let ((?x2325 (* 3.0 L_4)))
 (let ((?x968 (* (- 3.0) L_2)))
 (let ((?x1317 (* 2.0 S_2)))
 (let ((?x965 (* 3.0 A_2)))
 (let ((?x2514 (* (- 3.0) A_4)))
 (let (($x17724 (<= (+ ?x2514 ?x965 ?x1317 ?x1312 ?x968 ?x2325) 0.0)))
 (let ((?x4329 (* 5.0 L_4)))
 (let ((?x2931 (* (- 5.0) L_2)))
 (let ((?x1272 (* 2.0 S_4)))
 (let ((?x3013 (* 5.0 A_2)))
 (let ((?x4327 (* (- 5.0) A_4)))
 (let (($x11355 (<= (+ ?x4327 ?x3013 ?x1272 ?x1312 ?x2931 ?x4329) 0.0)))
 (let ((?x837 (* (- 2.0) L_1)))
 (let ((?x424 (* (- 1.0) S_2)))
 (let ((?x859 (* 2.0 A_1)))
 (let (($x33875 (<= (+ ?x1342 ?x1297 ?x859 ?x1283 ?x424 ?x973 ?x837 ?x1347) 0.0)))
 (let (($x107045 (<= 0.0 (+ (* (- 1.0) A_2) S_3 L_2))))
 (let ((?x961 (* (- 3.0) L_1)))
 (let ((?x413 (* (- 1.0) S_3)))
 (let ((?x1353 (* (- 3.0) L_3)))
 (let ((?x960 (* 3.0 A_1)))
 (let ((?x1350 (* 3.0 A_3)))
 (let (($x37622 (<= (+ ?x2514 ?x1350 ?x960 ?x1353 ?x413 ?x1312 ?x961 ?x2325) 0.0)))
 (let ((?x839 (* (- 2.0) L_2)))
 (let ((?x5366 (* 2.0 S_1)))
 (let ((?x851 (* 2.0 A_2)))
 (let (($x39079 (<= (+ ?x1342 ?x851 ?x5366 ?x1312 ?x839 ?x1347) 0.0)))
 (let (($x276621 (or $x81 (<= (+ ?x2514 (* 4.0 S_3) (* (- 1.0) S_1) ?x2325) (- 15.0)))))
 (let ((?x476 (* (- 1.0) L_2)))
 (let ((?x1130 (+ ?x386 A_2 ?x476 L_3)))
 (let (($x111251 (<= ?x1130 (- 10.0))))
 (let (($x126050 (or $x71 (<= (+ ?x386 S_0 L_3) (- 20.0)) $x111251 (<= (+ ?x386 A_1 ?x489 L_3) (- 15.0)))))
 (let (($x278758 (or $x81 (<= (+ ?x2514 (* (- 1.0) A_0) (* 4.0 S_3) ?x2325 L_0) (- 15.0)))))
 (let ((?x390 (* (- 1.0) A_2)))
 (let ((?x382 (* (- 1.0) A_4)))
 (let ((?x1445 (+ ?x382 ?x1297 ?x390 L_2 ?x1283 L_4)))
 (let (($x125701 (or $x71 (not (<= 0.0 (+ ?x382 S_4 L_4))) (<= 10.0 ?x1445) $x118186 $x119562)))
 (let (($x125599 (or $x81 (<= (+ ?x382 (* (- 1.0) A_0) ?x1317 L_4 L_0) (- 5.0)) (<= (+ ?x1342 ?x1297 (* (- 1.0) A_0) ?x1283 S_2 ?x1347 L_0) (- 10.0)))))
 (let ((?x5400 (* (- (/ 1.0 2.0)) S_0)))
 (let ((?x13763 (* (/ 3.0 2.0) S_1)))
 (let ((?x33802 (+ ?x390 ?x13763 ?x5400 L_2)))
 (let (($x116304 (<= 0.0 ?x33802)))
 (let (($x116305 (not $x116304)))
 (let (($x112905 (<= (+ ?x382 A_3 (* (- 1.0) L_3) (* (/ 1.0 2.0) S_1) ?x5400 L_4) (- 5.0))))
 (let (($x125586 (or $x81 $x112905 $x116305 (<= (+ ?x382 A_2 ?x476 S_1 ?x973 L_4) (- 5.0)))))
 (let ((?x1440 (* (- 2.0) L_4)))
 (let ((?x1439 (* 3.0 L_3)))
 (let ((?x1437 (* (- 3.0) A_3)))
 (let ((?x1438 (* 2.0 A_4)))
 (let ((?x2538 (* (- 3.0) L_4)))
 (let ((?x1310 (* 4.0 L_3)))
 (let ((?x1314 (* (- 4.0) A_3)))
 (let ((?x2536 (* 3.0 A_4)))
 (let ((?x450 (* (- 1.0) L_4)))
 (let ((?x1318 (* 2.0 L_3)))
 (let ((?x1316 (* (- 2.0) A_3)))
 (let (($x106073 (<= (+ A_4 ?x1316 A_2 ?x489 ?x1318 ?x450) (- 5.0))))
 (let (($x277355 (or $x71 $x106073 (<= (+ ?x2536 ?x1314 S_0 ?x1310 ?x2538) (- 5.0)) (<= (+ ?x1438 ?x1437 A_1 ?x489 ?x1439 ?x1440) (- 5.0)))))
 (let (($x125266 (or $x71 (<= (+ ?x386 (* (/ 2.0 3.0) S_4) (* (/ 1.0 3.0) S_1) L_3) (- 5.0)) $x115192)))
 (let (($x111165 (<= (+ ?x382 (* (- (/ 1.0 2.0)) A_1) (* (/ 1.0 2.0) L_1) (* (/ 3.0 2.0) S_3) L_4) (- 5.0))))
 (let (($x126295 (or $x81 (<= (+ ?x2514 ?x1350 S_3 (* (- 1.0) S_1) ?x1353 ?x2325) 0.0))))
 (let (($x280997 (or $x81 (<= (+ ?x1342 ?x1297 (* (- 1.0) A_1) L_1 S_3 ?x1283 ?x1347) 0.0))))
 (let (($x21179 (<= (+ ?x2541 (* 4.0 A_3) S_3 ?x973 (* (- 4.0) L_3) ?x2543) 0.0)))
 (let ((?x463 (* (- 1.0) L_3)))
 (let ((?x394 (* (- 1.0) A_1)))
 (let ((?x1969 (+ ?x382 A_3 A_2 ?x394 ?x463 L_1 ?x476 L_4)))
 (let (($x106755 (<= 0.0 ?x1969)))
 (let ((?x3943 (* (- (/ 3.0 2.0)) L_4)))
 (let ((?x6303 (* (/ 3.0 2.0) L_2)))
 (let ((?x6263 (* (- (/ 3.0 2.0)) A_2)))
 (let ((?x3991 (* (/ 3.0 2.0) A_4)))
 (let (($x61 (= L_2 L_1)))
 (let (($x48891 (<= (+ ?x1342 ?x1297 ?x851 ?x1283 ?x413 (* (- 1.0) S_1) ?x839 ?x1347) 0.0)))
 (let ((?x3868 (* (/ 3.0 2.0) L_4)))
 (let ((?x6056 (* (- (/ 3.0 2.0)) L_2)))
 (let ((?x1288 (* (- (/ 3.0 2.0)) L_3)))
 (let ((?x6986 (* (/ 3.0 2.0) A_2)))
 (let ((?x1306 (* (/ 3.0 2.0) A_3)))
 (let ((?x3865 (* (- (/ 3.0 2.0)) A_4)))
 (let (($x37036 (<= (+ ?x3865 ?x1306 ?x6986 ?x1288 ?x413 ?x5400 ?x6056 ?x3868) 0.0)))
 (let (($x1968 (<= (+ ?x382 A_3 ?x390 ?x859 ?x463 ?x973 ?x837 L_2 L_4) 0.0)))
 (let (($x15371 (<= (+ ?x1342 ?x1297 ?x851 (* (- 1.0) A_0) ?x1283 ?x413 ?x839 ?x1347 L_0) 0.0)))
 (let ((?x11369 (+ ?x382 A_2 ?x476 L_4)))
 (let (($x114920 (<= ?x11369 (- 15.0))))
 (let ((?x12109 (+ ?x382 A_3 ?x463 L_4)))
 (let (($x111164 (<= ?x12109 (- 10.0))))
 (let (($x124758 (or $x81 $x111164 (<= (+ ?x382 S_0 L_4) (- 25.0)) $x114920 (<= (+ ?x382 A_1 ?x489 L_4) (- 20.0)))))
 (let (($x114950 (<= (+ ?x1342 ?x1297 A_2 ?x1283 (* (- 1.0) S_1) ?x476 ?x1347) (- 5.0))))
 (let ((?x633 (+ L_3 ?x450)))
 (let (($x103555 (<= 0.0 ?x633)))
 (let (($x9656 (<= (+ ?x3865 ?x6986 S_3 (* (- 1.0) S_1) ?x6056 ?x3868) 0.0)))
 (let (($x1946 (<= (+ ?x382 A_3 A_2 ?x463 ?x424 ?x476 L_4) 0.0)))
 (let (($x108788 (<= (+ ?x1342 ?x1297 A_2 (* (- 1.0) A_0) ?x1283 ?x476 ?x1347 L_0) (- 5.0))))
 (let ((?x3853 (* (/ 1.0 2.0) L_4)))
 (let ((?x1323 (* (/ 1.0 2.0) L_1)))
 (let ((?x1330 (* (/ 1.0 2.0) L_3)))
 (let ((?x1322 (* (- (/ 1.0 2.0)) A_1)))
 (let ((?x1321 (* (/ 1.0 2.0) A_3)))
 (let ((?x3855 (* (- (/ 1.0 2.0)) A_4)))
 (let (($x17482 (<= (+ ?x3855 ?x1321 ?x7415 ?x1322 ?x1330 ?x6056 ?x1323 ?x3853) 0.0)))
 (let (($x269200 (or $x81 (<= (+ ?x1342 ?x1297 S_2 (* (- 1.0) S_1) ?x1283 ?x1347) 0.0))))
 (let (($x108228 (<= (+ ?x386 (* (- (/ 1.0 2.0)) A_0) (* (/ 3.0 2.0) S_2) L_3 (* (/ 1.0 2.0) L_0)) (- 5.0))))
 (let (($x124134 (or $x71 $x116305 (<= (+ ?x386 A_2 ?x476 (* (/ 1.0 2.0) S_1) ?x5400 L_3) (- 5.0)))))
 (let (($x1964 (<= (+ ?x382 A_3 A_1 ?x463 (* (- 1.0) S_1) ?x489 L_4) 0.0)))
 (let (($x274278 (or $x81 (<= (+ ?x1342 ?x1297 (* (- 1.0) A_0) S_2 ?x1283 ?x1347 L_0) 0.0))))
 (let (($x115346 (<= (+ ?x382 A_2 (* (- 2.0) A_0) ?x476 ?x5366 L_4 (* 2.0 L_0)) (- 5.0))))
 (let (($x113468 (<= (+ ?x382 (* (- 3.0) A_0) (* 4.0 S_1) L_4 (* 3.0 L_0)) (- 5.0))))
 (let (($x124019 (or $x81 (<= (+ ?x382 A_3 (* (- 1.0) A_0) ?x463 S_1 L_4 L_0) (- 5.0)) $x113468 $x115346)))
 (let (($x98019 (not (<= 0.0 (+ L_2 ?x463)))))
 (let ((?x11595 (* (/ 1.0 2.0) L_0)))
 (let ((?x3831 (* (/ 1.0 2.0) S_2)))
 (let ((?x12551 (* (- (/ 1.0 2.0)) A_0)))
 (let (($x1979 (<= (+ ?x382 A_3 A_1 (* (- 1.0) A_0) ?x463 ?x489 L_4 L_0) 0.0)))
 (let (($x39237 (<= (+ ?x3855 ?x7415 (* (- 1.0) A_0) S_1 ?x7435 ?x3853 L_0) 0.0)))
 (let (($x123706 (or $x71 (<= (+ ?x386 (* (/ 3.0 2.0) S_2) (* (- (/ 1.0 2.0)) S_1) L_3) (- 5.0)))))
 (let ((?x1346 (* (- 4.0) L_3)))
 (let ((?x435 (* (- 1.0) S_1)))
 (let ((?x1343 (* 4.0 A_3)))
 (let (($x110231 (<= 0.0 (+ ?x3855 ?x1321 ?x7415 ?x1322 (* (- (/ 1.0 2.0)) L_3) ?x7435 ?x1323 ?x3853))))
 (let (($x97500 (not $x103555)))
 (let ((?x3620 (* (/ 2.0 3.0) S_0)))
 (let (($x16911 (<= (+ A_4 (* (- (/ 2.0 3.0)) A_3) ?x390 (* (- (/ 1.0 3.0)) L_3) ?x3620 L_2) 0.0)))
 (let (($x274363 (or $x81 $x1946 (<= (+ ?x2514 ?x965 ?x1272 (* (- 2.0) S_2) ?x968 ?x2325) 0.0))))
 (let ((?x4344 (+ ?x382 A_1 ?x489 L_4)))
 (let (($x106491 (<= ?x4344 (- 15.0))))
 (let (($x277677 (or $x81 $x106491 (<= (+ ?x382 A_3 A_1 ?x463 ?x424 ?x489 L_4) (- 5.0)))))
 (let (($x23646 (<= (+ ?x382 A_2 A_1 ?x476 ?x973 ?x489 L_4) 0.0)))
 (let ((?x974 (* (- 4.0) L_1)))
 (let ((?x4085 (* (- 3.0) S_0)))
 (let ((?x3925 (* 3.0 S_3)))
 (let ((?x972 (* 4.0 A_1)))
 (let (($x5977 (<= (+ ?x2541 ?x972 ?x3925 ?x4085 ?x974 ?x2543) 0.0)))
 (let (($x4606 (<= (+ ?x1342 ?x859 (* 3.0 S_1) ?x4085 ?x837 ?x1347) 0.0)))
 (let (($x9696 (<= (+ ?x3865 ?x6986 (* (- 1.0) A_0) S_3 ?x6056 ?x3868 L_0) 0.0)))
 (let (($x123061 (or $x71 (<= (+ ?x386 (* (/ 4.0 3.0) S_2) (* (- (/ 1.0 3.0)) S_0) L_3) (- 5.0)))))
 (let (($x4087 (<= (+ ?x2514 ?x960 (* 3.0 S_2) ?x4085 ?x961 ?x2325) 0.0)))
 (let (($x122896 (or $x81 (<= (+ ?x2514 ?x1350 ?x1353 S_2 ?x973 ?x2325) (- 15.0)) (<= (+ ?x382 (* (/ 5.0 3.0) S_2) (* (- (/ 2.0 3.0)) S_0) L_4) (- 5.0)))))
 (let ((?x2991 (* (- 5.0) L_1)))
 (let ((?x2526 (* 3.0 S_4)))
 (let ((?x4134 (* 5.0 A_1)))
 (let (($x4331 (<= (+ ?x4327 ?x4134 ?x2526 ?x4085 ?x2991 ?x4329) 0.0)))
 (let ((?x962 (* 3.0 L_2)))
 (let ((?x959 (* (- 3.0) A_2)))
 (let ((?x1971 (+ A_4 ?x959 ?x859 ?x837 ?x962 ?x450)))
 (let (($x108496 (<= (+ A_4 (* (- 2.0) A_2) S_0 (* 2.0 L_2) ?x450) (- 5.0))))
 (let (($x272251 (or $x71 (<= (+ A_4 ?x386 (* (- 1.0) S_4) S_2 L_3 ?x450) 0.0))))
 (let (($x110221 (<= 0.0 (+ A_4 ?x959 ?x859 ?x450 ?x837 ?x962))))
 (let (($x361 (<= 0.0 (+ ?x489 L_0))))
 (let ((?x1289 (* (/ 3.0 2.0) L_3)))
 (let ((?x1329 (* (- (/ 1.0 2.0)) L_1)))
 (let ((?x1328 (* (/ 1.0 2.0) A_1)))
 (let ((?x1292 (* (- (/ 3.0 2.0)) A_3)))
 (let (($x274664 (or $x61 (<= (+ A_4 ?x1316 ?x390 ?x1318 S_4 S_0 L_2 ?x450) 0.0) $x110231)))
 (let ((?x1365 (* 2.0 L_0)))
 (let ((?x1364 (* (- 2.0) A_0)))
 (let ((?x4102 (* 3.0 L_0)))
 (let ((?x4624 (* 3.0 S_1)))
 (let ((?x4101 (* (- 3.0) A_0)))
 (let (($x279082 (or $x81 $x1979 (<= (+ ?x382 A_1 ?x4101 ?x4624 ?x489 L_4 ?x4102) 0.0) (<= (+ ?x382 A_2 A_1 ?x1364 ?x476 S_1 ?x489 L_4 ?x1365) 0.0))))
 (let (($x275940 (or $x71 $x107045 (<= 0.0 (+ ?x382 A_3 ?x463 (* (/ 1.0 2.0) S_3) ?x5400 L_4)) (<= 0.0 (+ ?x382 A_3 ?x394 ?x463 S_3 L_1 L_4)))))
 (let (($x15345 (<= (+ ?x382 A_2 S_2 ?x435 ?x476 L_4) 0.0)))
 (let (($x1955 (<= (+ A_3 ?x463 (* (- 1.0) S_4)) 0.0)))
 (let ((?x858 (* 2.0 L_2)))
 (let ((?x828 (* (- 2.0) A_2)))
 (let (($x280367 (or $x61 (<= (+ ?x1438 ?x1316 ?x828 ?x1318 S_2 S_0 ?x858 ?x1440) 0.0) $x106755)))
 (let (($x18098 (<= (+ ?x382 A_2 (* (- 1.0) A_0) S_2 ?x476 L_4 L_0) 0.0)))
 (let ((?x3973 (* (/ 1.0 3.0) L_4)))
 (let ((?x3974 (* (- (/ 1.0 3.0)) A_4)))
 (let (($x51 (= L_1 L_0)))
 (let (($x121683 (or $x51 $x81 (<= (+ ?x3974 (* (- (/ 2.0 3.0)) A_1) S_2 (* (/ 2.0 3.0) L_1) ?x3973) (- 5.0)) (<= (+ ?x3855 ?x1321 ?x1322 (* (- (/ 1.0 2.0)) L_3) ?x3831 ?x1323 ?x3853) (- 5.0)))))
 (let (($x52636 (<= (+ ?x1316 ?x851 ?x859 ?x839 ?x424 ?x973 ?x837 ?x1318) 0.0)))
 (let (($x47335 (<= (+ ?x386 A_1 S_1 ?x973 ?x489 L_3) 0.0)))
 (let ((?x20979 (* (/ 5.0 2.0) L_3)))
 (let ((?x24126 (* (- (/ 5.0 2.0)) L_1)))
 (let ((?x24033 (* (/ 5.0 2.0) A_1)))
 (let ((?x23941 (* (- (/ 5.0 2.0)) A_3)))
 (let (($x20333 (<= (+ ?x23941 ?x24033 S_4 ?x973 ?x24126 ?x20979) 0.0)))
 (let (($x121631 (or $x81 (<= (+ ?x1342 ?x1297 ?x1283 S_2 ?x435 ?x1347) (- 10.0)) (<= (+ ?x382 ?x1317 ?x435 L_4) (- 5.0)))))
 (let (($x121475 (or $x81 (<= (+ ?x382 (* (/ 5.0 2.0) S_1) (* (- (/ 3.0 2.0)) S_0) L_4) (- 5.0)) $x112905 (<= (+ ?x382 ?x965 ?x968 (* (- 2.0) S_1) L_4) (- 5.0)))))
 (let (($x126544 (or $x51 (<= (+ A_4 ?x386 ?x394 L_3 ?x413 ?x5366 L_1 ?x450) 0.0) $x107045)))
 (let (($x273788 (or $x81 $x106491 (<= (+ ?x382 A_3 A_1 ?x463 ?x413 ?x489 L_4) (- 10.0)))))
 (let ((?x855 (* 2.0 L_1)))
 (let ((?x4082 (* 3.0 S_0)))
 (let ((?x3908 (* (- 3.0) S_3)))
 (let ((?x780 (* (- 2.0) A_1)))
 (let (($x25303 (<= (+ ?x386 A_2 A_1 (* (- 1.0) A_0) ?x476 ?x489 L_3 L_0) 0.0)))
 (let (($x12270 (<= (+ ?x1316 ?x859 S_3 ?x973 ?x837 ?x1318) 0.0)))
 (let (($x25282 (<= (+ ?x386 A_2 A_1 ?x476 ?x435 ?x489 L_3) 0.0)))
 (let (($x8160 (<= (+ ?x1292 (* (/ 3.0 2.0) A_1) S_2 ?x973 (* (- (/ 3.0 2.0)) L_1) ?x1289) 0.0)))
 (let (($x275013 (or $x71 (<= (+ ?x1314 ?x972 ?x1272 (* (- 2.0) S_1) ?x974 ?x1310) 0.0) $x25282)))
 (let (($x278640 (or $x71 (<= (+ ?x1437 ?x960 ?x1491 (* (- 2.0) S_1) ?x961 ?x1439) 0.0) $x25282)))
 (let (($x21010 (<= (+ ?x1292 (* (/ 3.0 2.0) A_1) S_4 ?x424 (* (- (/ 3.0 2.0)) L_1) ?x1289) 0.0)))
 (let (($x279747 (or $x71 $x21010 (<= (+ ?x386 ?x7415 A_1 ?x7435 ?x8921 ?x424 ?x489 L_3) 0.0))))
 (let (($x120576 (or $x61 (<= (+ ?x386 ?x390 A_1 L_3 S_4 ?x489 L_2) (- 5.0)) (<= (+ ?x1316 ?x390 ?x1318 ?x1272 S_0 L_2) (- 5.0)))))
 (let (($x120574 (or $x61 (<= (+ ?x390 ?x8921 (* (/ 1.0 2.0) S_0) L_2) (- 5.0)) (<= (+ ?x959 ?x859 ?x837 S_4 ?x962) (- 15.0)))))
 (let (($x60414 (<= (+ ?x1342 A_2 ?x859 ?x476 S_4 (* (- 2.0) S_1) ?x837 ?x1347) 0.0)))
 (let (($x127070 (or $x81 $x1964 (<= (+ ?x2541 ?x972 ?x2526 (* (- 3.0) S_1) ?x974 ?x2543) 0.0) $x60414)))
 (let ((?x1327 (* (- (/ 1.0 2.0)) A_3)))
 (let ((?x8171 (+ ?x1327 ?x1322 S_2 ?x1323 ?x1330)))
 (let (($x107352 (<= 0.0 ?x8171)))
 (let (($x120485 (not $x107352)))
 (let (($x270888 (or $x81 (<= (+ ?x382 A_3 ?x394 ?x463 S_2 L_1 L_4) (- 5.0)) $x120485)))
 (let (($x120484 (or $x81 $x107352 (<= (+ ?x382 ?x780 ?x855 (* 3.0 S_2) L_4) (- 5.0)))))
 (let (($x280776 (or $x81 (<= (+ ?x382 ?x386 A_1 L_3 ?x1272 ?x413 ?x489 L_4) 0.0) $x107045)))
 (let (($x35392 (<= (+ ?x386 A_1 L_3 S_4 ?x413 ?x489) 0.0)))
 (let (($x120065 (or $x107045 (<= (+ ?x386 L_3 S_4 (* (- (/ 1.0 2.0)) S_3) (* (/ 1.0 2.0) S_0)) 0.0) $x35392)))
 (let ((?x4643 (* (- (/ 4.0 3.0)) L_1)))
 (let ((?x3534 (* (/ 4.0 3.0) A_1)))
 (let (($x69627 (<= (+ (* (- (/ 4.0 3.0)) A_4) ?x851 ?x3534 ?x1364 ?x839 ?x4643 (* (/ 4.0 3.0) L_4) ?x1365) 0.0)))
 (let (($x277863 (or $x81 $x1979 (<= (+ ?x1342 A_2 ?x859 ?x1364 ?x476 S_4 ?x837 ?x1347 ?x1365) 0.0) (not $x69627))))
 (let (($x118955 (or $x81 $x1979 (<= (+ ?x2541 ?x972 ?x4101 ?x2526 ?x974 ?x2543 ?x4102) 0.0) $x69627)))
 (let (($x279471 (or $x61 (<= (+ (* (/ 1.0 2.0) A_4) ?x6263 S_1 ?x6303 (* (- (/ 1.0 2.0)) L_4)) (- 5.0)))))
 (let (($x2788 (<= (+ (* (- 5.0) A_3) ?x3013 S_4 ?x973 ?x2931 (* 5.0 L_3)) 0.0)))
 (let (($x11371 (<= (+ ?x1342 ?x851 (* (- 1.0) A_0) S_4 ?x839 ?x1347 L_0) 0.0)))
 (let (($x89815 (not (<= 0.0 (+ L_1 ?x476)))))
 (let (($x14887 (<= (+ ?x1342 ?x1297 ?x851 (* (- 1.0) A_0) ?x1283 ?x413 ?x837 ?x1347 L_0) 0.0)))
 (let (($x14575 (<= (+ A_4 ?x390 (* (- 2.0) S_2) (* 2.0 S_0) L_2 ?x450) 0.0)))
 (let (($x10770 (<= (+ A_1 ?x489 ?x424) 0.0)))
 (let (($x15901 (<= (+ ?x2536 ?x959 (* (- 2.0) S_4) (* 2.0 S_0) ?x962 ?x2538) 0.0)))
 (let (($x271060 (or $x61 $x15901 (<= (+ A_4 ?x390 A_1 ?x450 (* (- 1.0) S_4) ?x489 L_2) 0.0))))
 (let (($x1278 (<= (+ ?x1297 ?x780 (* (- 2.0) S_3) (* 2.0 S_0) ?x855 ?x1283) 0.0)))
 (let (($x128513 (or $x61 (<= (+ ?x1297 ?x828 ?x413 S_0 ?x858 ?x1283) 0.0) (<= (+ A_3 ?x390 A_1 ?x463 ?x413 ?x489 L_2) 0.0))))
 (let (($x119440 (or $x61 (<= (+ ?x828 A_1 ?x489 S_3 ?x858) (- 10.0)) (<= (+ ?x390 (* (/ 2.0 3.0) S_3) (* (/ 1.0 3.0) S_0) L_2) (- 5.0)))))
 (let (($x271773 (or $x61 (<= (+ A_4 ?x390 ?x413 S_0 L_2 ?x450) 0.0) (<= (+ A_4 ?x390 ?x859 ?x837 (* (- 2.0) S_3) L_2 ?x450) 0.0))))
 (let (($x125845 (or $x71 (<= (+ ?x1316 ?x851 (* (- 1.0) A_0) S_2 ?x839 ?x1318 L_0) 0.0))))
 (let ((?x3859 (* (- (/ 1.0 2.0)) L_4)))
 (let ((?x7414 (* (/ 1.0 2.0) L_2)))
 (let ((?x7416 (* (- (/ 1.0 2.0)) A_2)))
 (let ((?x3861 (* (/ 1.0 2.0) A_4)))
 (let ((?x4076 (* (- (/ 1.0 3.0)) L_4)))
 (let ((?x4075 (* (/ 1.0 3.0) L_1)))
 (let ((?x3982 (* (- (/ 1.0 3.0)) A_1)))
 (let ((?x3924 (* (/ 1.0 3.0) A_4)))
 (let (($x110715 (<= (+ A_2 ?x476 (* (- 1.0) S_4)) (- 5.0))))
 (let (($x36171 (<= (+ ?x1328 (* (- (/ 1.0 2.0)) S_4) ?x1329) (- 5.0))))
 (let (($x118846 (or $x1955 $x36171 (<= (+ (* (- (/ 1.0 3.0)) S_4) (* (/ 1.0 3.0) S_0)) (- 5.0)) $x110715)))
 (let (($x272519 (or $x81 (<= (+ ?x382 ?x390 A_1 L_2 ?x1491 ?x424 ?x489 L_4) 0.0))))
 (let (($x118790 (or $x51 (<= (+ (* (- 4.0) A_1) S_4 ?x4082 (* 4.0 L_1)) (- 20.0)))))
 (let (($x4081 (<= (+ ?x1342 ?x859 (* 3.0 S_2) (* (- 3.0) S_1) ?x837 ?x1347) 0.0)))
 (let (($x4017 (<= (+ A_4 ?x394 (* (- 3.0) S_4) (* 3.0 S_2) L_1 ?x450) 0.0)))
 (let (($x3012 (<= (+ A_4 ?x386 A_2 (* (- 1.0) S_4) ?x489 L_3 ?x450) 0.0)))
 (let (($x271624 (or $x71 $x3012 (<= (+ ?x2536 ?x1437 (* (- 1.0) S_4) S_0 ?x1439 ?x2538) 0.0) (<= (+ ?x1438 ?x1316 A_1 ?x489 (* (- 1.0) S_4) ?x1318 ?x1440) 0.0))))
 (let (($x269064 (or $x71 $x3012 (<= (+ ?x1438 ?x1316 (* (- 1.0) S_4) S_1 ?x1318 ?x1440) 0.0))))
 (let (($x59760 (<= (+ ?x4327 (* 5.0 A_3) S_4 ?x973 (* (- 5.0) L_3) ?x4329) 0.0)))
 (let (($x127287 (or $x81 (<= (+ ?x2541 ?x1343 (* (- 1.0) A_0) S_4 ?x1346 ?x2543 L_0) 0.0))))
 (let (($x127463 (or $x61 (<= (+ ?x390 A_1 ?x489 L_2) (- 10.0)) (<= (+ ?x390 S_0 L_2) (- 15.0)))))
 (let (($x107117 (<= (+ (* (- (/ 1.0 2.0)) S_3) (* (/ 1.0 2.0) S_0)) (- 5.0))))
 (let (($x53452 (<= (+ ?x386 ?x851 A_1 (* (- 1.0) S_4) ?x839 ?x973 ?x489 L_3) 0.0)))
 (let (($x107809 (<= (+ A_4 ?x959 ?x859 ?x837 ?x962 ?x463) (- 10.0))))
 (let (($x128411 (or $x61 (<= (+ ?x3991 ?x6263 (* (- 1.0) S_4) S_0 ?x6303 ?x1288) 0.0) $x97500 $x107809)))
 (let (($x117995 (or $x71 (<= (+ ?x386 A_2 (* (- 1.0) A_0) ?x476 S_1 L_3 L_0) (- 5.0)) (<= (+ ?x386 ?x1364 ?x4624 L_3 ?x1365) (- 5.0)))))
 (let (($x115545 (<= (+ ?x1316 ?x851 A_1 ?x839 ?x973 ?x489 ?x1318) (- 5.0))))
 (let ((?x31324 (+ ?x1342 ?x1350 ?x394 ?x1353 L_1 ?x1347)))
 (let (($x113325 (<= 0.0 ?x31324)))
 (let (($x278402 (or $x71 (<= (+ ?x386 A_2 (* (- 1.0) A_0) S_1 ?x476 L_3 L_0) 0.0))))
 (let (($x269077 (or $x71 (<= (+ ?x1314 ?x1400 (* (- 1.0) A_0) S_4 ?x1524 ?x1310 L_0) 0.0))))
 (let (($x25307 (<= (+ A_4 A_2 ?x394 ?x476 (* (- 2.0) S_4) S_1 L_1 ?x450) 0.0)))
 (let (($x271918 (or $x51 $x1955 (not (<= (+ ?x851 ?x839 (* (- 1.0) S_4) ?x435) 0.0)) $x25307)))
 (let (($x129111 (or $x51 (<= (+ ?x3924 (* (- (/ 4.0 3.0)) A_1) S_0 (* (/ 4.0 3.0) L_1) ?x4076) (- 5.0)))))
 (let (($x275079 (or $x71 (<= (+ ?x1437 ?x965 (* (- 1.0) A_0) S_3 ?x968 ?x1439 L_0) 0.0))))
 (let (($x22229 (<= (+ A_4 ?x390 ?x394 L_2 ?x424 (* 2.0 S_0) L_1 ?x450) 0.0)))
 (let (($x129863 (or $x51 $x81 (<= (+ ?x382 ?x1297 ?x390 ?x394 L_2 S_1 L_1 ?x1283 L_4) 0.0))))
 (let (($x269466 (or $x81 (<= (+ ?x3855 ?x1321 ?x1322 ?x1330 ?x3831 ?x1323 ?x476 ?x3853) 0.0) $x98019)))
 (let ((?x4253 (* (/ 3.0 2.0) S_3)))
 (let ((?x1294 (* (/ 3.0 2.0) L_1)))
 (let ((?x1304 (* (- (/ 3.0 2.0)) A_1)))
 (let (($x271287 (or $x61 (<= (+ ?x1297 ?x828 A_1 ?x489 (* (- 1.0) S_4) ?x858 ?x1283) 0.0) (not (<= 0.0 (+ A_3 ?x390 ?x394 S_0 L_1 L_2 ?x463))))))
 (let (($x280166 (or $x81 $x1979 (<= (+ ?x1342 ?x859 ?x4101 (* 3.0 S_2) ?x837 ?x1347 ?x4102) 0.0))))
 (let (($x127348 (or $x71 (<= (+ A_4 ?x1316 A_2 A_1 ?x476 ?x424 ?x489 ?x1318 ?x450) 0.0) $x113325)))
 (let (($x277295 (or $x81 (<= (+ ?x2514 ?x1350 (* (- 1.0) A_0) S_3 ?x1353 ?x2325 L_0) 0.0))))
 (let (($x271122 (or $x61 (<= (+ ?x1350 ?x959 (* (- 1.0) S_4) S_0 ?x962 ?x1353) 0.0) (<= 0.0 (+ ?x1297 ?x828 ?x780 (* 2.0 S_0) ?x855 ?x858 ?x1283)))))
 (let (($x33057 (<= (+ A_2 (* (- 1.0) A_0) (* (- 1.0) S_4) ?x476 S_1 L_0) 0.0)))
 (let (($x61015 (or $x1955 (<= (+ (* (- 1.0) A_0) (* (- (/ 1.0 2.0)) S_4) ?x13763 L_0) 0.0) $x33057)))
 (let (($x279429 (or $x51 (<= (+ A_3 ?x394 (* (- 2.0) S_3) ?x5366 L_1 ?x463) 0.0) $x107045)))
 (let (($x129800 (or $x61 (<= (+ ?x390 (* (/ 1.0 2.0) S_3) (* (/ 1.0 2.0) S_1) L_2) (- 5.0)))))
 (let (($x15833 (<= (+ (* (- 5.0) A_2) ?x4134 S_4 ?x973 ?x2991 (* 5.0 L_2)) 0.0)))
 (let (($x116492 (or $x1955 (<= (+ ?x851 (* (- 2.0) S_4) ?x839 S_1 ?x973) 0.0) $x116305)))
 (let (($x116422 (or $x51 $x81 (<= (+ (* (- (/ 2.0 3.0)) A_4) ?x3982 S_3 ?x4075 (* (/ 2.0 3.0) L_4)) (- 5.0)))))
 (let (($x16102 (<= (+ (* (- 4.0) A_2) ?x972 S_4 ?x435 ?x974 (* 4.0 L_2)) 0.0)))
 (let (($x110907 (or $x61 (<= (+ ?x1297 ?x828 (* (- 1.0) S_4) S_1 ?x858 ?x1283) 0.0))))
 (let (($x270368 (or $x61 (<= (+ ?x1297 ?x959 S_0 ?x962 ?x1283) (- 5.0)) (<= (+ A_3 ?x828 A_1 ?x463 ?x489 ?x858) (- 5.0)))))
 (let (($x114992 (or $x107045 (<= (+ S_4 (* (- 2.0) S_3) S_0) 0.0) (<= (+ ?x859 ?x837 S_4 ?x3908) 0.0))))
 (let (($x268760 (or $x81 (<= (+ ?x382 A_3 (* (- 1.0) A_0) S_1 ?x463 L_4 L_0) 0.0))))
 (let (($x2573 (<= (+ A_4 ?x394 (* (- 3.0) S_4) (* 3.0 S_2) L_1 ?x463) 0.0)))
 (let ((?x20096 (+ ?x394 S_0 L_1)))
 (let (($x109394 (<= ?x20096 (- 5.0))))
 (let (($x33177 (<= (+ A_1 ?x413 ?x489) (- 5.0))))
 (let (($x129184 (or $x61 (<= (+ A_4 ?x386 ?x828 A_1 L_3 S_2 ?x489 ?x858 ?x450) 0.0))))
 (let (($x8184 (<= (+ ?x1321 ?x1322 (* (- 1.0) S_4) S_2 ?x1323 (* (- (/ 1.0 2.0)) L_3)) 0.0)))
 (let ((?x12388 (* (- (/ 2.0 3.0)) L_0)))
 (let ((?x3950 (* (/ 2.0 3.0) L_4)))
 (let ((?x3892 (* (/ 2.0 3.0) A_1)))
 (let ((?x3689 (* (- (/ 2.0 3.0)) A_4)))
 (let (($x1212 (not $x51)))
 (let (($x977 (<= (+ (* (- 4.0) A_2) ?x972 S_3 ?x973 ?x974 (* 4.0 L_2)) 0.0)))
 (let (($x126465 (or $x51 (<= (+ A_3 ?x394 (* (- 1.0) S_4) S_1 L_1 ?x463) 0.0))))
 (let (($x110592 (or $x51 (<= (+ A_3 ?x394 (* (- 1.0) S_4) S_1 L_1 ?x476) 0.0) $x98019)))
 (let (($x2689 (<= (+ (* (- 1.0) A_0) (* (- 2.0) S_4) (* 3.0 S_2) L_0) 0.0)))
 (let ((?x975 (* 4.0 L_2)))
 (let ((?x999 (* (- 1.0) A_0)))
 (let ((?x971 (* (- 4.0) A_2)))
 (let (($x271819 (or $x81 (<= (+ ?x3689 ?x3892 S_3 ?x424 (* (- (/ 2.0 3.0)) L_1) ?x3950) 0.0))))
 (let (($x11698 (<= (+ ?x851 ?x839 (* (- 1.0) S_4) ?x435) 0.0)))
 (let (($x272878 (or $x51 $x1955 $x11698 (not (<= 0.0 (+ A_4 ?x959 ?x394 ?x4624 L_1 ?x962 ?x450))))))
 (let (($x126749 (or $x51 (<= (+ A_4 ?x390 ?x780 L_2 (* 2.0 S_0) ?x855 ?x450) (- 5.0)))))
 (let (($x107444 (<= 0.0 (+ A_4 ?x959 ?x394 ?x4624 L_1 ?x962 ?x450))))
 (let (($x271939 (or $x51 $x1955 (<= (+ ?x1438 ?x780 (* (- 3.0) S_4) ?x4624 ?x855 ?x1440) 0.0) $x107444)))
 (let (($x129889 (or $x71 $x361 (= (+ ?x1342 ?x1350 ?x394 L_1 ?x1353 ?x1347) 0.0) $x3012 $x103555)))
 (let ((?x967 (* 3.0 L_1)))
 (let ((?x2516 (* (- 3.0) S_4)))
 (let ((?x966 (* (- 3.0) A_1)))
 (let (($x128133 (or $x51 (<= (+ ?x1306 ?x1304 (* (- 1.0) S_4) S_0 ?x1294 ?x1288) 0.0))))
 (let (($x133095 (or $x51 $x1955 (<= (+ A_2 ?x394 (* (- 1.0) S_4) S_2 L_1 ?x476) 0.0))))
 (let (($x129958 (or $x51 $x1955 (<= (+ ?x851 ?x780 (* (- 1.0) S_4) S_1 ?x855 ?x839) 0.0))))
 (let (($x129332 (or $x51 $x1955 (<= (+ ?x965 ?x966 (* (- 1.0) S_4) S_0 ?x967 ?x968) 0.0))))
 (let (($x131285 (or $x61 $x1955 (<= (+ A_4 ?x390 (* (- 2.0) S_4) ?x1317 L_2 ?x450) 0.0))))
 (let (($x1001 (<= (+ ?x959 ?x960 ?x999 S_3 ?x961 ?x962 L_0) 0.0)))
 (let (($x1972 (<= ?x1971 0.0)))
 (let (($x1949 (not $x1972)))
 (let (($x987 (= (+ ?x382 ?x965 ?x780 ?x855 ?x968 L_4) 0.0)))
 (let (($x131282 (or $x51 (<= (+ ?x1321 ?x1322 ?x424 S_0 ?x1323 (* (- (/ 1.0 2.0)) L_3)) 0.0))))
 (let (($x129739 (or $x61 (<= (+ A_3 ?x390 (* (- 1.0) S_4) S_2 L_2 ?x463) 0.0))))
 (let (($x280342 (or $x61 $x1212 (<= (+ A_3 ?x828 A_1 ?x858 ?x463 (* (- 1.0) L_0)) 0.0))))
 (let (($x127009 (or $x51 $x81 $x987 $x1949 (<= (+ ?x382 A_3 ?x851 ?x394 ?x463 ?x413 L_1 ?x839 L_4) 0.0))))
 (let (($x108 (>= S_1 S_0)))
 (let (($x111 (>= S_2 S_1)))
 (let (($x114 (>= S_3 S_2)))
 (let (($x117 (>= S_4 S_3)))
 (let (($x119 (>= A_1 A_0)))
 (let (($x120 (>= A_2 A_1)))
 (let (($x121 (>= A_3 A_2)))
 (let (($x122 (>= A_4 A_3)))
 (and $x122 $x121 $x120 $x119 $x117 $x114 $x111 $x108 (or $x51 (not $x361)) (or $x61 (<= (+ ?x390 A_1 ?x489 L_2) (- 5.0))) (or $x89815 $x61) (or $x61 $x71 $x361 (= (+ ?x386 ?x851 ?x394 L_1 ?x839 L_3) 0.0)) (or $x97500 $x81) (or $x61 $x1972) (or $x51 $x81 $x987 $x1949 $x1979) (or $x51 $x61 $x81 $x987 $x1968) $x127009 (or $x51 $x81 $x987 $x1949 $x1955) (or $x51 (<= (+ ?x394 S_1 L_1) (- 5.0))) (or $x51 $x71 (<= (+ ?x386 ?x851 ?x394 ?x489 L_3) 0.0) $x89815) (or $x71 $x98019) (or $x61 $x71 (= ?x1445 0.0) $x103555) (or $x71 $x97500 (<= 0.0 (+ ?x382 ?x1297 ?x390 L_2 ?x463))) (or $x71 (<= (+ ?x1316 ?x851 S_4 ?x413 ?x839 ?x1318) 0.0)) (or $x61 (<= (+ ?x959 ?x960 S_3 ?x435 ?x961 ?x962) 0.0)) (or $x1955 (<= (+ (* (- 1.0) S_4) S_2) (- 5.0))) (or $x81 (<= (+ ?x382 A_1 S_4 ?x424 ?x489 L_4) 0.0)) (or $x61 (<= (+ ?x386 ?x390 A_1 L_3 S_4 ?x489 L_2) 0.0)) (or $x61 (<= (+ ?x828 A_1 S_3 ?x489 ?x858) (- 5.0))) (or $x81 $x1955 $x4087) (or $x51 (<= (+ A_2 ?x394 ?x413 S_1 L_1 ?x476) 0.0)) (or $x81 (<= (+ ?x382 S_4 L_4) (- 5.0))) (or $x71 (<= ?x1130 (- 5.0))) $x280342 (or $x61 $x81 (<= (+ ?x382 ?x1297 ?x390 ?x476 L_4) 0.0) $x98019) (or $x61 (<= (+ ?x390 S_2 L_2) (- 5.0))) (or $x71 (<= 0.0 (+ ?x382 ?x1297 ?x390 ?x1283 L_2 L_4))) (<= (+ ?x394 L_1 S_1) 0.0) (or $x61 (<= (+ ?x390 A_1 ?x999 S_1 ?x489 L_2 L_0) 0.0)) $x129739 (or $x51 (<= (+ A_2 ?x780 S_0 ?x855 ?x476) (- 5.0))) $x131282 (or $x51 $x81 $x987 $x1946 $x1949) (or $x51 $x81 $x987 $x1949 (<= ?x1969 (- 5.0))) (or $x71 (<= (+ ?x1316 ?x859 ?x1364 ?x1317 ?x837 ?x1318 ?x1365) 0.0)) (<= (+ ?x390 S_2 L_2) 0.0) (or $x81 (<= (+ ?x1342 ?x851 ?x1491 (* (- 2.0) S_2) ?x839 ?x1347) 0.0)) (or $x61 $x81 (<= (+ ?x3855 ?x7416 S_3 ?x7414 ?x3853) (- 5.0))) (or $x81 $x1946 $x9696) (or $x81 $x1946 $x9656) (or $x61 (<= (+ ?x828 ?x859 ?x999 S_2 ?x837 ?x858 L_0) 0.0)) (or $x51 (<= (+ A_2 ?x394 ?x424 S_0 L_1 ?x476) 0.0)) (or $x61 $x10770 (<= (+ A_3 ?x390 ?x424 S_0 L_2 ?x463) 0.0)) (or $x61 (<= (+ ?x828 ?x859 S_3 ?x424 ?x837 ?x858) 0.0)) (or (<= (+ (* (/ 1.0 3.0) S_3) ?x424 ?x3620) 0.0) $x10770) (or $x81 (<= (+ ?x382 A_2 S_4 ?x413 ?x476 L_4) 0.0)) (or $x51 (<= (+ ?x1321 ?x1304 S_0 ?x1294 (* (- (/ 1.0 2.0)) L_3)) (- 5.0))) (or $x61 $x1001) (or $x81 (<= (+ ?x2514 ?x960 ?x4101 ?x3925 ?x961 ?x2325 ?x4102) 0.0)) (or $x71 $x1001 (not (= (+ ?x386 ?x851 ?x394 L_1 ?x839 L_3) 0.0))) (or $x71 (<= (+ ?x386 S_3 L_3) (- 5.0))) (or $x51 (<= ?x20096 (- 10.0))) (or $x107045 (<= (+ S_4 ?x3908 ?x5366) 0.0)) (or $x107045 (<= (+ ?x413 S_1) (- 5.0))) (or $x107045 (<= (+ (* (- 2.0) S_3) ?x4624 ?x973) 0.0)) (or $x107045 (<= (+ ?x999 ?x413 ?x5366 L_0) 0.0)) (or $x81 (<= ?x12109 (- 5.0))) (or $x51 (<= (+ ?x851 ?x780 ?x413 S_0 ?x855 ?x839) 0.0)) $x131285 (or $x1955 (<= (+ ?x2516 (* 4.0 S_2) ?x973) 0.0)) (or $x81 (<= (+ ?x2514 ?x960 ?x3925 (* (- 3.0) S_1) ?x961 ?x2325) 0.0)) $x129332 (or $x61 (<= (+ ?x828 ?x859 S_2 ?x435 ?x837 ?x858) 0.0)) (or $x81 $x1964 $x4087) (or $x61 (<= (+ ?x959 ?x960 S_2 ?x973 ?x961 ?x962) 0.0)) (or $x61 (<= (+ ?x828 ?x859 S_1 ?x973 ?x837 ?x858) 0.0)) $x129958 $x133095 (or $x61 (<= 0.0 (+ ?x386 ?x851 ?x394 ?x839 L_1 L_3))) $x128133 (or $x51 (<= (+ ?x2536 ?x966 ?x2516 ?x4082 ?x967 ?x2538) 0.0)) (or $x71 $x97500 $x106073 (<= 0.0 (+ ?x1342 ?x1350 ?x394 L_1 ?x463))) $x129889 $x271939 $x126749 $x272878 (or $x61 (<= (+ ?x959 ?x960 S_4 ?x424 ?x961 ?x962) 0.0)) $x271819 (or $x61 (<= (+ ?x971 ?x972 ?x999 S_4 ?x974 ?x975 L_0) 0.0)) (or $x1955 $x2689) $x110592 (or $x51 (<= (+ A_4 ?x386 ?x394 L_3 S_0 L_1 ?x450) 0.0)) (or $x51 (<= (+ ?x394 ?x3831 (* (/ 1.0 2.0) S_0) L_1) (- 5.0))) (or $x71 (<= (+ ?x386 A_1 S_3 ?x424 ?x489 L_3) 0.0)) (or $x10770 (<= (+ ?x424 S_0) (- 5.0))) (or $x10770 (<= (+ S_4 (* (- 4.0) S_2) ?x4082) 0.0)) (or $x61 (<= (+ ?x828 ?x859 S_4 ?x413 ?x837 ?x858) 0.0)) (or $x51 (<= (+ ?x386 ?x394 L_3 S_4 S_0 L_1) (- 5.0))) (or $x71 (<= (+ ?x1437 ?x965 S_4 ?x424 ?x968 ?x1439) 0.0)) (or $x71 (<= (+ ?x1314 ?x1400 S_4 ?x435 ?x1524 ?x1310) 0.0)) (or $x71 (<= (+ ?x1437 ?x965 ?x394 L_1 S_4 ?x968 ?x1439) 0.0)) (or $x71 (<= (+ ?x1316 ?x851 ?x394 L_1 S_3 ?x839 ?x1318) 0.0)) $x126465 (or $x81 $x1979 $x4087) (or $x81 (<= (+ ?x382 A_3 ?x390 S_3 L_1 ?x463 L_4) 0.0)) (or $x61 $x977) (or $x1955 (<= (+ (* (- 2.0) S_4) (* 3.0 S_2) ?x435) 0.0)) (or $x81 $x361 $x1964 $x110221) (or $x51 $x1955 (<= (+ ?x394 (* (- 1.0) S_4) ?x1317 L_1) (- 5.0))) (or $x81 $x1212 (<= (+ ?x3689 ?x3892 S_4 ?x413 ?x3950 ?x12388) 0.0) $x107045) (or $x71 $x35392 $x107045) (or $x51 $x1955 $x8184) (or $x71 $x8160 $x107045) $x129184 (or $x61 (<= (+ ?x959 ?x859 S_4 ?x837 ?x962) (- 5.0))) (or $x33177 $x107045 $x109394) (or $x71 $x107045 $x113325) (or $x71 (<= (+ ?x1316 ?x851 S_3 ?x424 ?x839 ?x1318) 0.0)) (or $x81 $x4087 $x33875) (or $x81 $x4087 $x111926) (or $x51 (<= (+ A_3 ?x394 ?x413 S_0 L_1 ?x476) 0.0) $x98019) (or $x71 $x10770 (<= (+ A_4 ?x386 ?x424 S_0 L_3 ?x450) 0.0)) (or $x81 $x5977 $x37622 $x107045) (or $x51 $x1955 $x2573 $x97500) (or $x61 (<= (+ A_3 ?x390 ?x413 S_1 L_2 ?x463) 0.0)) (or $x71 (<= (+ A_4 ?x386 ?x450 ?x413 L_3 S_1) 0.0) $x107045) $x268760 (or $x61 (<= (+ A_3 ?x828 S_1 ?x858 ?x463) (- 5.0))) (or $x61 (<= (+ ?x390 ?x999 ?x5366 L_2 L_0) (- 5.0))) $x114992 $x270368 (or $x81 (<= (+ ?x382 A_2 ?x394 L_4 S_3 L_1 ?x476) 0.0)) (or $x51 (<= (+ A_3 ?x390 ?x394 L_2 S_0 L_1 ?x463) 0.0)) (or $x81 (<= (+ ?x382 S_3 L_4) (- 10.0))) $x110907 (or $x71 $x106073 $x113325) (or $x71 $x23646 $x103555 $x113325) (or $x71 $x25303 (<= (+ ?x386 A_1 ?x1364 ?x5366 ?x489 L_3 ?x1365) 0.0)) (or $x71 $x25303 $x47335) (or $x71 $x25303 $x113325) (or $x71 $x25282 $x113325) (or $x361 (<= (+ ?x1342 ?x1350 ?x394 L_1 ?x1353 ?x1347) 0.0) $x103555) (or $x71 (<= (+ ?x1316 ?x859 ?x1317 (* (- 2.0) S_1) ?x837 ?x1318) 0.0)) (or $x71 $x3012 $x113325) (or $x61 (<= (+ ?x1438 ?x828 (* (- 2.0) S_4) ?x5366 ?x858 ?x1440) 0.0)) (or $x81 $x1946 $x11371) (or $x81 $x17482 (<= (+ ?x2514 ?x965 ?x780 ?x855 ?x1272 ?x968 ?x2325) 0.0)) (or $x81 $x11371 $x17482) (or $x81 $x11371 $x108788) (or $x81 $x1979 $x11371) (or $x81 $x17482 (<= (+ ?x382 A_2 ?x780 ?x855 ?x1317 ?x476 L_4) 0.0)) (or $x81 $x17482 $x18098) (or $x81 (<= ?x11369 (- 10.0))) (or $x61 $x16102) (or $x71 (<= (+ ?x1316 ?x851 S_1 ?x973 ?x839 ?x1318) 0.0)) $x116422 (or $x81 (<= (+ ?x382 ?x390 L_2 ?x1491 L_4) (- 5.0))) (or $x51 (<= (+ ?x394 (* (/ 1.0 3.0) S_3) ?x3620 L_1) (- 5.0))) $x116492 (or $x1955 (<= (+ (* (- 1.0) S_4) ?x5366 ?x973) 0.0) $x116304) (or $x81 $x1979 $x39237) (or $x61 $x15833) (or $x71 $x8160 $x115545) (or $x71 $x8160 $x25303) $x129800 $x279429 (or $x10770 (<= (+ ?x390 L_2 S_3 ?x424 S_0) 0.0)) (or $x51 (<= (+ ?x390 ?x394 L_2 S_3 S_0 L_1) (- 5.0))) $x61015 $x271122 $x277295 $x127348 $x280166 (or $x51 (<= (+ A_4 ?x394 ?x3908 ?x4624 L_1 ?x450) 0.0) $x107045) (or $x107045 $x107117 (<= (- 5.0) ?x20096)) $x271287 (or $x1955 (<= (+ ?x1322 (* (- (/ 1.0 2.0)) S_4) ?x1323 S_2) 0.0)) (or $x81 (<= (+ ?x2514 ?x1350 ?x1304 ?x1294 ?x4253 ?x968 ?x2325) 0.0) $x98019) (or $x81 (<= (+ ?x2514 ?x1350 ?x394 L_1 S_4 ?x968 ?x2325) 0.0) $x98019) $x269466 (or $x10770 (<= (+ ?x7416 ?x7414 ?x8921 ?x424 S_0) 0.0)) $x129863 (or $x51 $x22229) (or $x71 $x8160 $x53452) (or $x71 $x52636 $x113325) $x275079 $x129111 $x271918 (or $x81 $x1955 $x39237) (or $x81 $x17482 $x39237) (or $x107045 (<= (+ ?x386 L_3 S_4 ?x413 S_1) 0.0)) (or $x61 (<= ?x33802 (- 5.0))) (or $x71 (<= (+ ?x386 S_2 L_3) (- 10.0))) (or $x61 (<= (+ ?x959 S_4 ?x5366 ?x962) (- 15.0))) (or $x71 (<= (+ ?x1316 A_2 S_4 ?x476 ?x1318) (- 5.0))) $x269077 $x278402 (or $x71 $x113325 $x115545) (or $x71 $x53452 $x113325) (or $x71 (<= (+ ?x386 A_1 ?x489 L_3) (- 10.0))) $x117995 $x128411 (or $x71 $x12270 $x53452) (or $x71 $x47335 $x53452) (or $x107045 $x107117 (not $x109394)) $x127463 (or $x1955 (<= (+ (* (- (/ 1.0 2.0)) S_4) (* (/ 1.0 2.0) S_1)) (- 5.0)) $x110715) (or $x61 (<= (+ A_4 ?x386 ?x390 L_3 S_1 L_2 ?x450) 0.0)) $x127287 (or $x81 $x59760) $x269064 $x271624 (or $x81 (<= (+ ?x2514 ?x1350 ?x394 L_1 S_4 ?x1353 ?x2325) 0.0)) (or $x81 (<= (+ ?x2514 ?x1350 S_4 ?x424 ?x1353 ?x2325) 0.0)) (or $x81 (<= (+ ?x1342 ?x1297 S_1 ?x973 ?x1283 ?x1347) 0.0)) (or $x51 $x1955 $x4017) (or $x81 $x1964 $x4081) $x118790 (or $x51 (<= (+ ?x7416 ?x394 ?x7414 ?x8921 S_0 L_1) (- 5.0))) $x272519 (or $x10770 (<= (+ ?x386 L_3 S_4 ?x424 S_0) 0.0)) $x118846 (or $x51 (<= (+ ?x3924 ?x3982 ?x424 S_0 ?x4075 ?x4076) 0.0)) (or $x71 (<= (+ ?x1437 ?x965 S_2 ?x973 ?x968 ?x1439) 0.0)) (or $x81 $x1955 $x106491) (or $x81 $x111164 (<= (+ ?x382 S_2 L_4) (- 15.0))) (or $x71 (<= (+ ?x1316 S_4 S_2 ?x1318) (- 10.0))) (or $x71 (<= (+ A_4 ?x1316 S_2 ?x1318 ?x450) (- 5.0))) (or $x61 (<= (+ ?x390 S_1 L_2) (- 10.0))) (or $x61 (<= (+ ?x3861 ?x7416 ?x413 S_1 ?x7414 ?x3859) 0.0)) $x125845 (or $x71 (<= (+ ?x1316 ?x851 S_2 ?x435 ?x839 ?x1318) 0.0)) $x271773 $x119440 (or $x61 $x97500 $x107809 $x108496) $x128513 (or $x51 $x1278) (or $x71 (<= (+ ?x1437 ?x960 ?x1364 ?x1491 ?x961 ?x1439 ?x1365) 0.0) $x25303) (or $x81 $x1979 $x9696) (or $x71 (<= (+ ?x386 A_2 ?x394 L_3 S_2 L_1 ?x476) 0.0)) (or $x61 $x15901 $x106755) $x271060 (or $x61 $x10770 $x14575) (or $x81 $x11371 $x14887 $x89815) (or $x81 (<= (+ ?x1342 ?x851 S_4 ?x435 ?x839 ?x1347) 0.0) $x48891) (or $x81 $x11371 $x15371) (or $x81 $x1964 (<= (+ ?x1342 ?x851 S_4 ?x435 ?x839 ?x1347) 0.0)) (or $x81 (<= (+ ?x1342 ?x851 S_4 ?x435 ?x839 ?x1347) 0.0) $x114950) (or $x51 $x71 (<= ?x8171 (- 5.0))) (or $x71 $x2788) $x279471 (or $x71 (<= (+ ?x1314 ?x972 ?x1364 ?x1272 ?x974 ?x1310 ?x1365) 0.0) $x25303) $x118955 $x277863 (or $x81 (<= (+ ?x1342 ?x1297 S_4 ?x413 ?x839 ?x1347) 0.0) $x98019) $x120065 (or $x81 (<= (+ ?x1342 ?x1297 ?x390 L_2 S_4 ?x1283 ?x1347) 0.0)) $x280776 $x120484 (or $x81 (<= ?x31324 (- 10.0)) $x120485) $x270888 (or $x81 (<= (+ ?x1342 ?x859 ?x2526 ?x3908 ?x837 ?x1347) 0.0) $x107045) $x127070 $x120574 $x120576 $x279747 $x278640 (or $x71 $x12270 $x52636) (or $x71 (<= (+ ?x1437 ?x965 S_3 ?x435 ?x968 ?x1439) 0.0)) $x275013 (or $x71 $x8160 $x25282) (or $x71 $x20333 $x25282) (or $x71 $x20333 $x25303) (or $x71 $x20333 $x52636) (or $x81 $x4606 $x23646 $x111926) (or $x71 $x47335 $x107045) (or $x71 $x47335 $x115545) (or $x71 (<= (+ ?x1314 ?x1400 S_3 ?x973 ?x1524 ?x1310) 0.0)) (or $x71 $x12270 $x25282) (or $x71 $x12270 $x115545) (or $x71 $x12270 $x25303) (or $x81 $x1979 $x18098) (or $x81 $x18098 $x108788) (or $x51 (<= (+ ?x1438 ?x780 ?x3908 ?x4082 ?x855 ?x1440) 0.0) $x107045) (or $x81 $x39237 $x108788) (or $x81 $x9656 $x48891) (or $x81 $x9656 $x17482) (or $x81 $x15345 $x17482) (or $x81 $x106491 $x111164) $x273788 $x126544 (or $x81 $x111164 (<= (+ ?x382 S_1 L_4) (- 20.0)) $x114920) $x121475 (or $x81 $x4606 $x37622 $x107045) (or $x81 $x1955 $x9656) (or $x81 $x1955 $x9696) (or $x81 $x15371 $x18098) (or $x71 $x20333 $x115545) (or $x81 $x17482 $x39079) $x121631 (or $x71 $x20333 $x107045) (or $x71 $x47335 $x52636) $x121683 (or $x81 $x1955 $x18098) (or $x81 $x15345 $x48891) $x280367 (or $x81 $x1955 $x17724) (or $x81 $x1955 $x15345) (or $x81 $x17724 (<= (+ ?x3865 ?x1306 ?x7415 ?x1288 ?x5400 ?x7435 ?x3868) (- 5.0))) (or $x81 $x1955 $x9674) (or $x81 $x1955 $x39079) (or $x81 $x361 $x33875 $x110221) (or $x81 $x4331 $x23646 $x33875) (or $x81 $x1955 $x4606 $x23646) (or $x81 $x1955 $x5977 $x23646) (or $x81 $x1964 $x106491) (or $x81 $x1979 $x106491) (or $x81 $x1979 $x5977 $x23646) (or $x81 $x5977 $x23646 $x111926) (or $x81 $x1964 $x4331 $x23646) (or $x81 (<= (+ ?x1342 ?x1297 S_4 ?x413 ?x1283 ?x1347) 0.0)) $x275940 $x279082 (or $x81 $x1979 $x4606 $x23646) (or $x81 $x1946 $x9674) (or $x81 $x9674 (<= (+ ?x3865 ?x1306 ?x7415 ?x1288 ?x5400 ?x7435 ?x3868) (- 5.0))) (or $x81 $x9696 $x108788) (or $x81 $x9696 $x17482) $x274664 (or $x81 $x37622 $x106491 $x107045) (or $x71 (<= (+ ?x1292 ?x1328 S_4 ?x1329 ?x1289) (- 5.0)) $x115192) (or $x81 $x1964 $x5977 $x23646) (or $x81 $x1946 $x39237) (or $x81 (<= (+ ?x1342 ?x3925 ?x424 ?x1347) (- 10.0))) (or $x81 $x361 $x110221 $x111926) (or $x81 $x361 $x37622 $x107045 $x110221) $x272251 (or $x61 $x108496 (<= ?x1971 (- 10.0))) (or $x81 $x4331 $x37622 $x107045) (or $x81 $x4331 $x23646 $x111926) (or $x81 $x1979 $x4331 $x23646) $x122896 (or $x81 (<= (+ ?x2541 (* 5.0 S_3) ?x973 ?x2543) (- 20.0))) (or $x81 $x4087 $x37622 $x107045) (or $x81 $x17724 $x37036) (or $x81 $x9674 $x114950) (or $x81 $x17724 $x114950) (or $x81 $x17482 $x17724) (or $x81 $x39079 (<= (+ ?x3865 ?x1306 ?x7415 ?x1288 ?x5400 ?x7435 ?x3868) (- 5.0))) $x123061 (or $x71 (<= (+ ?x386 ?x394 L_1 ?x1317 L_3) (- 5.0))) (or $x81 $x15371 $x17724) (or $x81 $x9696 $x15371) (or $x81 $x106491 $x111926) (or $x61 (<= (+ ?x386 ?x390 L_3 S_4 S_1 L_2) (- 5.0))) (or $x81 $x11355 (<= (+ ?x3865 ?x1306 ?x7415 ?x1288 ?x5400 ?x7435 ?x3868) (- 5.0))) (or $x71 $x111251 (<= (+ ?x386 S_1 L_3) (- 15.0))) (or $x81 $x4606 $x23646 $x33875) (or $x81 $x5977 $x23646 $x33875) (or $x81 $x33875 $x106491) $x277677 $x274363 (or $x81 $x1946 (<= (+ ?x1342 ?x851 S_4 ?x435 ?x839 ?x1347) 0.0)) (or $x81 $x1979 $x11355) (or $x81 $x11355 $x108788) (or $x81 $x11355 $x48891) (or $x81 $x11355 $x114950) (or $x81 (<= (+ ?x1342 ?x851 S_4 ?x435 ?x839 ?x1347) 0.0) $x17482) (or $x81 $x11355 $x17482) (or $x81 $x11355 $x37036) (or $x81 $x11355 $x15371) (or $x61 $x16911 $x97500 $x110231) (or $x81 $x15345 $x114950) (or $x81 $x1964 $x15345) (or $x81 (<= (+ ?x2541 ?x1343 S_4 ?x435 ?x1346 ?x2543) 0.0)) $x123706 (or $x61 $x81 $x1968 $x9674) (or $x61 $x81 $x1968 $x17724) (or $x81 $x1979 $x17724) (or $x81 $x1979 $x9674) (or $x81 $x9674 $x15371) (or $x81 $x10770 $x39079 (not $x106755)) (or $x81 $x15371 $x39237) (or $x81 $x1979 $x39079) (or $x81 $x10770 $x11355 (not $x106755)) (or $x81 (<= (+ ?x382 A_3 ?x12551 ?x3831 ?x476 L_4 ?x11595) 0.0) $x98019) (or $x81 (<= (+ ?x1342 ?x1297 S_3 ?x424 ?x1283 ?x1347) 0.0)) $x124019 $x274278 (or $x81 (<= (+ ?x382 A_3 ?x394 L_1 S_2 ?x463 L_4) 0.0)) (or $x1964 $x9656 $x103555) (or $x1964 $x9674 $x103555) (or $x1964 $x17724 $x103555) (or $x1964 $x11355 $x103555) (or $x81 $x1946 $x11355) $x124134 (or $x71 $x116304 (<= (+ ?x386 ?x5366 ?x973 L_3) (- 5.0))) (or $x71 $x108228) (or $x81 (<= (+ ?x2514 ?x1350 S_2 ?x973 ?x1353 ?x2325) 0.0)) $x269200 (or $x81 $x9674 $x108788) (or $x81 $x9674 $x17482) (or $x81 $x17724 $x108788) (or $x81 $x39079 $x108788) (or $x81 $x1946 $x39079) (or $x81 $x37036 $x39079) (or $x61 $x81 $x1968 $x11355) (or $x81 $x17724 $x48891) (or $x71 $x106073 (<= (+ ?x1438 ?x1437 S_1 ?x1439 ?x1440) (- 5.0))) (or $x9656 $x103555 $x114950) $x124758 (or $x81 $x15371 $x39079) (or $x61 $x81 $x1968 $x39079) (or $x81 $x9674 $x37036) (or $x81 $x9674 $x48891) (or $x61 (<= (+ ?x3991 ?x386 ?x6263 L_3 S_0 ?x6303 ?x3943) 0.0) $x106755) (or $x81 $x21179) $x280997 $x126295 (or $x81 $x111165) $x125266 $x277355 $x125586 $x125599 $x125701 $x278758 (or $x81 $x39079 $x111926) (or $x81 $x33875 $x39079) $x126050 $x276621 (or $x81 $x17724 $x37622 $x107045) (or $x81 $x37622 $x39079 $x107045) (or $x81 $x9674 $x37622 $x107045) (or $x81 $x11355 $x37622 $x107045) (or $x81 $x11355 $x33875) (or $x81 $x9674 $x33875) (or $x81 $x11355 $x111926) (or $x81 $x17724 $x111926) (or $x71 $x115192 $x118186 $x119562) (or $x81 $x9674 $x111926) $x34 (<= (+ ?x1364 (* 2.0 S_0) ?x1365) 0.0) (<= (+ ?x382 L_4 S_4) 0.0) (<= (+ ?x386 L_3 S_3) 0.0)))))))))))))))))))))))))))))))))))))))))))))))))))))))))))))))))))))))))))))))))))))))))))))))))))))))))))))))))))))))))))))))))))))))))))))))))))))))))))))))))))))))))))))))))))))))))))))))))))))))))))))))))))))))))))))))))))))))))))))))))))))))))))))))))))))))))))))))))))))))))))))))))))))))))))))))))))))))))))))))))))))))))))))))))))))))))))))))))))))))
(check-sat)
